<instance format="XCSP3" type="CSP">
<variables>
<array id="u0" size="[7]"> 0..9 </array>
<array id="id0" size="[7]"> 0..48 </array>
<array id="u1" size="[7]"> 0..9 </array>
<array id="id1" size="[7]"> 0..48 </array>
<array id="u2" size="[7]"> 0..9 </array>
<array id="id2" size="[7]"> 0..48 </array>
<array id="u3" size="[7]"> 0..9 </array>
<array id="id3" size="[7]"> 0..48 </array>
<array id="u4" size="[7]"> 0..9 </array>
<array id="id4" size="[7]"> 0..48 </array>
<array id="u5" size="[7]"> 0..9 </array>
<array id="id5" size="[7]"> 0..48 </array>
<array id="u6" size="[7]"> 0..9 </array>
<array id="id6" size="[7]"> 0..48 </array>
<array id="d6" size="[7]"> 0..9 </array>
<array id="l0" size="[7]"> 0..9 </array>
<array id="l1" size="[7]"> 0..9 </array>
<array id="l2" size="[7]"> 0..9 </array>
<array id="l3" size="[7]"> 0..9 </array>
<array id="l4" size="[7]"> 0..9 </array>
<array id="l5" size="[7]"> 0..9 </array>
<array id="l6" size="[7]"> 0..9 </array>
<array id="r6" size="[7]"> 0..9 </array>
</variables>
<constraints>
<allDifferent> id0[] id1[] id2[] id3[] id4[] id5[] id6[] </allDifferent>
<group>
<extension>
<list> %0 %1 %2 %3 %4 </list>
<supports> (0,0,0,1,2)(0,0,1,2,0)(0,1,2,0,0)(0,2,0,0,1)(1,0,0,1,3)(1,0,1,3,0)(1,1,3,0,0)(1,3,0,0,1)(2,0,0,2,1)(2,0,2,1,0)(2,1,0,0,2)(2,2,1,0,0)(3,0,0,3,2)(3,0,3,2,0)(3,2,0,0,3)(3,3,2,0,0)(4,0,1,5,1)(4,1,0,1,5)(4,1,5,1,0)(4,5,1,0,1)(5,0,1,6,1)(5,1,0,1,6)(5,1,6,1,0)(5,6,1,0,1)(6,0,1,6,3)(6,1,6,3,0)(6,3,0,1,6)(6,6,3,0,1)(7,0,1,7,2)(7,1,7,2,0)(7,2,0,1,7)(7,7,2,0,1)(8,0,1,8,2)(8,1,8,2,0)(8,2,0,1,8)(8,8,2,0,1)(9,0,1,8,3)(9,1,8,3,0)(9,3,0,1,8)(9,8,3,0,1)(10,0,2,4,2)(10,2,0,2,4)(10,2,4,2,0)(10,4,2,0,2)(11,0,2,5,3)(11,2,5,3,0)(11,3,0,2,5)(11,5,3,0,2)(12,0,2,7,2)(12,2,0,2,7)(12,2,7,2,0)(12,7,2,0,2)(13,0,2,8,2)(13,2,0,2,8)(13,2,8,2,0)(13,8,2,0,2)(14,0,2,8,3)(14,2,8,3,0)(14,3,0,2,8)(14,8,3,0,2)(15,0,2,9,1)(15,1,0,2,9)(15,2,9,1,0)(15,9,1,0,2)(16,0,2,9,3)(16,2,9,3,0)(16,3,0,2,9)(16,9,3,0,2)(17,0,3,4,1)(17,1,0,3,4)(17,3,4,1,0)(17,4,1,0,3)(18,0,3,4,2)(18,2,0,3,4)(18,3,4,2,0)(18,4,2,0,3)(19,0,3,5,1)(19,1,0,3,5)(19,3,5,1,0)(19,5,1,0,3)(20,0,3,6,1)(20,1,0,3,6)(20,3,6,1,0)(20,6,1,0,3)(21,0,3,6,3)(21,3,0,3,6)(21,3,6,3,0)(21,6,3,0,3)(22,0,3,8,3)(22,3,0,3,8)(22,3,8,3,0)(22,8,3,0,3)(23,0,3,9,1)(23,1,0,3,9)(23,3,9,1,0)(23,9,1,0,3)(24,4,4,5,8)(24,4,5,8,4)(24,5,8,4,4)(24,8,4,4,5)(25,4,4,7,5)(25,4,7,5,4)(25,5,4,4,7)(25,7,5,4,4)(26,4,4,7,7)(26,4,7,7,4)(26,7,4,4,7)(26,7,7,4,4)(27,4,5,5,7)(27,5,5,7,4)(27,5,7,4,5)(27,7,4,5,5)(28,4,5,8,5)(28,5,4,5,8)(28,5,8,5,4)(28,8,5,4,5)(29,4,6,5,7)(29,5,7,4,6)(29,6,5,7,4)(29,7,4,6,5)(30,4,6,7,6)(30,6,4,6,7)(30,6,7,6,4)(30,7,6,4,6)(31,4,8,6,9)(31,6,9,4,8)(31,8,6,9,4)(31,9,4,8,6)(32,4,8,7,7)(32,7,4,8,7)(32,7,7,4,8)(32,8,7,7,4)(33,4,8,9,5)(33,5,4,8,9)(33,8,9,5,4)(33,9,5,4,8)(34,4,8,9,6)(34,6,4,8,9)(34,8,9,6,4)(34,9,6,4,8)(35,4,9,6,8)(35,6,8,4,9)(35,8,4,9,6)(35,9,6,8,4)(36,4,9,8,5)(36,5,4,9,8)(36,8,5,4,9)(36,9,8,5,4)(37,4,9,9,6)(37,6,4,9,9)(37,9,6,4,9)(37,9,9,6,4)(38,5,5,8,7)(38,5,8,7,5)(38,7,5,5,8)(38,8,7,5,5)(39,5,5,9,7)(39,5,9,7,5)(39,7,5,5,9)(39,9,7,5,5)(40,5,6,7,7)(40,6,7,7,5)(40,7,5,6,7)(40,7,7,5,6)(41,5,6,8,6)(41,6,5,6,8)(41,6,8,6,5)(41,8,6,5,6)(42,5,6,9,9)(42,6,9,9,5)(42,9,5,6,9)(42,9,9,5,6)(43,5,9,7,9)(43,7,9,5,9)(43,9,5,9,7)(43,9,7,9,5)(44,6,7,9,8)(44,7,9,8,6)(44,8,6,7,9)(44,9,8,6,7)(45,6,8,7,7)(45,7,6,8,7)(45,7,7,6,8)(45,8,7,7,6)(46,6,8,8,7)(46,7,6,8,8)(46,8,7,6,8)(46,8,8,7,6)(47,6,9,8,9)(47,8,9,6,9)(47,9,6,9,8)(47,9,8,9,6)(48,6,9,9,7)(48,7,6,9,9)(48,9,7,6,9)(48,9,9,7,6) </supports>
</extension>
<args> id0[0] u0[0] l1[0] u1[0] l0[0] </args>
<args> id0[1] u0[1] l2[0] u1[1] l1[0] </args>
<args> id0[2] u0[2] l3[0] u1[2] l2[0] </args>
<args> id0[3] u0[3] l4[0] u1[3] l3[0] </args>
<args> id0[4] u0[4] l5[0] u1[4] l4[0] </args>
<args> id0[5] u0[5] l6[0] u1[5] l5[0] </args>
<args> id0[6] u0[6] r6[0] u1[6] l6[0] </args>
<args> id1[0] u1[0] l1[1] u2[0] l0[1] </args>
<args> id1[1] u1[1] l2[1] u2[1] l1[1] </args>
<args> id1[2] u1[2] l3[1] u2[2] l2[1] </args>
<args> id1[3] u1[3] l4[1] u2[3] l3[1] </args>
<args> id1[4] u1[4] l5[1] u2[4] l4[1] </args>
<args> id1[5] u1[5] l6[1] u2[5] l5[1] </args>
<args> id1[6] u1[6] r6[1] u2[6] l6[1] </args>
<args> id2[0] u2[0] l1[2] u3[0] l0[2] </args>
<args> id2[1] u2[1] l2[2] u3[1] l1[2] </args>
<args> id2[2] u2[2] l3[2] u3[2] l2[2] </args>
<args> id2[3] u2[3] l4[2] u3[3] l3[2] </args>
<args> id2[4] u2[4] l5[2] u3[4] l4[2] </args>
<args> id2[5] u2[5] l6[2] u3[5] l5[2] </args>
<args> id2[6] u2[6] r6[2] u3[6] l6[2] </args>
<args> id3[0] u3[0] l1[3] u4[0] l0[3] </args>
<args> id3[1] u3[1] l2[3] u4[1] l1[3] </args>
<args> id3[2] u3[2] l3[3] u4[2] l2[3] </args>
<args> id3[3] u3[3] l4[3] u4[3] l3[3] </args>
<args> id3[4] u3[4] l5[3] u4[4] l4[3] </args>
<args> id3[5] u3[5] l6[3] u4[5] l5[3] </args>
<args> id3[6] u3[6] r6[3] u4[6] l6[3] </args>
<args> id4[0] u4[0] l1[4] u5[0] l0[4] </args>
<args> id4[1] u4[1] l2[4] u5[1] l1[4] </args>
<args> id4[2] u4[2] l3[4] u5[2] l2[4] </args>
<args> id4[3] u4[3] l4[4] u5[3] l3[4] </args>
<args> id4[4] u4[4] l5[4] u5[4] l4[4] </args>
<args> id4[5] u4[5] l6[4] u5[5] l5[4] </args>
<args> id4[6] u4[6] r6[4] u5[6] l6[4] </args>
<args> id5[0] u5[0] l1[5] u6[0] l0[5] </args>
<args> id5[1] u5[1] l2[5] u6[1] l1[5] </args>
<args> id5[2] u5[2] l3[5] u6[2] l2[5] </args>
<args> id5[3] u5[3] l4[5] u6[3] l3[5] </args>
<args> id5[4] u5[4] l5[5] u6[4] l4[5] </args>
<args> id5[5] u5[5] l6[5] u6[5] l5[5] </args>
<args> id5[6] u5[6] r6[5] u6[6] l6[5] </args>
<args> id6[0] u6[0] l1[6] d6[0] l0[6] </args>
<args> id6[1] u6[1] l2[6] d6[1] l1[6] </args>
<args> id6[2] u6[2] l3[6] d6[2] l2[6] </args>
<args> id6[3] u6[3] l4[6] d6[3] l3[6] </args>
<args> id6[4] u6[4] l5[6] d6[4] l4[6] </args>
<args> id6[5] u6[5] l6[6] d6[5] l5[6] </args>
<args> id6[6] u6[6] r6[6] d6[6] l6[6] </args>
</group>
<group>
<intension> eq(%0,%1) </intension>
<args> l0[0] 0 </args>
<args> l0[1] 0 </args>
<args> l0[2] 0 </args>
<args> l0[3] 0 </args>
<args> l0[4] 0 </args>
<args> l0[5] 0 </args>
<args> l0[6] 0 </args>
</group>
<group>
<intension> eq(%0,%1) </intension>
<args> r6[0] 0 </args>
<args> r6[1] 0 </args>
<args> r6[2] 0 </args>
<args> r6[3] 0 </args>
<args> r6[4] 0 </args>
<args> r6[5] 0 </args>
<args> r6[6] 0 </args>
</group>
<group>
<intension> eq(%0,%1) </intension>
<args> u0[0] 0 </args>
<args> u0[1] 0 </args>
<args> u0[2] 0 </args>
<args> u0[3] 0 </args>
<args> u0[4] 0 </args>
<args> u0[5] 0 </args>
<args> u0[6] 0 </args>
</group>
<group>
<intension> eq(%0,%1) </intension>
<args> d6[0] 0 </args>
<args> d6[1] 0 </args>
<args> d6[2] 0 </args>
<args> d6[3] 0 </args>
<args> d6[4] 0 </args>
<args> d6[5] 0 </args>
<args> d6[6] 0 </args>
</group>
</constraints>
</instance>
